(set-logic ALL)
(declare-fun f (Int Int) Bool)
(declare-fun g (Int Int) Bool)
(declare-fun j () Int)
(declare-fun k () Int)
(declare-fun n () Int)
(declare-fun lift_l () Int)
(declare-fun lift_nat_step$ (Int) Int)
(declare-fun lift_to_int$ (Int) Int)
(assert (= j n))
(assert (not (= k n)))
(assert (not (= (+ k 1) (lift_to_int$ lift_l))))
(assert (exists ((x Int)) (and (exists ((x0 Int)) (and (<= k x0) (<= x0 n) (g x0 x))) (forall ((x1 Int)) (=> (exists ((x2 Int)) (and (<= k x2) (<= x2 n) (g x2 x1))) (<= x x1))) (g (lift_to_int$ (lift_to_int$ lift_l)) x))))
(assert (< 0 n))
(assert (forall ((x3 Int) (lift_x4 Int)) (=> (>= lift_x4 0) (=> (f x3 (lift_to_int$ lift_x4)) (and (<= 1 x3) (<= x3 n) (<= 0 (lift_to_int$ lift_x4)))))))
(assert (forall ((x5 Int) (x6 Int) (x7 Int)) (=> (and (f x5 x6) (f x5 x7)) (= x6 x7))))
(assert (forall ((x8 Int)) (=> (and (<= 1 x8) (<= x8 n)) (exists ((x9 Int)) (f x8 x9)))))
(assert (forall ((x10 Int) (x11 Int) (x12 Int)) (=> (and (f x11 x10) (f x12 x10)) (= x11 x12))))
(assert (forall ((lift_x13 Int) (lift_x14 Int)) (=> (and (>= lift_x13 0) (>= lift_x14 0)) (=> (g (lift_to_int$ lift_x13) (lift_to_int$ lift_x14)) (and (<= 0 (lift_to_int$ lift_x13)) (<= 0 (lift_to_int$ lift_x14)))))))
(assert (forall ((x15 Int) (lift_x16 Int)) (=> (>= lift_x16 0) (=> (g x15 (lift_to_int$ lift_x16)) (and (<= 1 x15) (<= x15 n) (<= 0 (lift_to_int$ lift_x16)))))))
(assert (forall ((x17 Int) (x18 Int) (x19 Int)) (=> (and (g x17 x18) (g x17 x19)) (= x18 x19))))
(assert (forall ((x20 Int)) (=> (and (<= 1 x20) (<= x20 n)) (exists ((x21 Int)) (g x20 x21)))))
(assert (forall ((x22 Int) (x23 Int) (x24 Int)) (=> (and (g x23 x22) (g x24 x22)) (= x23 x24))))
(assert (forall ((x25 Int)) (= (exists ((x26 Int)) (g x26 x25)) (exists ((x27 Int)) (f x27 x25)))))
(assert (<= 1 k))
(assert (<= k n))
(assert (forall ((i Int) (j0 Int)) (=> (and (<= 1 i) (<= i (- k 1)) (<= (+ i 1) j0) (<= j0 n)) (forall ((x28 Int) (x29 Int)) (=> (and (g i x29) (g j0 x28)) (< x29 x28))))))
(assert (<= 0 (lift_to_int$ lift_l)))
(assert (<= k j))
(assert (<= j n))
(assert (<= k (lift_to_int$ lift_l)))
(assert (<= (lift_to_int$ lift_l) j))
(assert (exists ((x30 Int)) (and (exists ((x31 Int)) (and (<= k x31) (<= x31 j) (g x31 x30))) (forall ((x32 Int)) (=> (exists ((x33 Int)) (and (<= k x33) (<= x33 j) (g x33 x32))) (<= x30 x32))) (g (lift_to_int$ (lift_to_int$ lift_l)) x30))))
(assert (exists ((x34 Int)) (g (lift_to_int$ (lift_to_int$ lift_l)) x34)))
(assert (forall ((x35 Int) (x36 Int) (x37 Int)) (=> (and (g x35 x36) (g x35 x37)) (= x36 x37))))
(assert (exists ((b Int)) (forall ((x38 Int)) (=> (exists ((x39 Int)) (and (<= k x39) (<= x39 j) (g x39 x38))) (<= b x38)))))
(assert (exists ((x40 Int)) (g k x40)))
(assert (or (exists ((x41 Int)) (and (exists ((x42 Int)) (and (= x42 (+ k 1)) (g x42 x41))) (not (or (exists ((x43 Int)) (and (= (+ k 1) k) (g (lift_to_int$ (lift_to_int$ lift_l)) x43))) (exists ((x44 Int)) (and (= (+ k 1) (lift_to_int$ lift_l)) (g k x44))))))) (exists ((x45 Int)) (and (= (+ k 1) k) (g (lift_to_int$ (lift_to_int$ lift_l)) x45) (not (exists ((x46 Int)) (and (= (+ k 1) (lift_to_int$ lift_l)) (g k x46)))))) (exists ((x47 Int)) (and (= (+ k 1) (lift_to_int$ lift_l)) (g k x47)))))
(assert (forall ((x48 Int) (x49 Int) (x50 Int)) (=> (and (or (and (g x48 x49) (not (or (exists ((x51 Int)) (and (= x48 k) (g (lift_to_int$ (lift_to_int$ lift_l)) x51))) (exists ((x52 Int)) (and (= x48 (lift_to_int$ lift_l)) (g k x52)))))) (and (= x48 k) (g (lift_to_int$ (lift_to_int$ lift_l)) x49) (not (exists ((x53 Int)) (and (= x48 (lift_to_int$ lift_l)) (g k x53))))) (and (= x48 (lift_to_int$ lift_l)) (g k x49))) (or (and (g x48 x50) (not (or (exists ((x54 Int)) (and (= x48 k) (g (lift_to_int$ (lift_to_int$ lift_l)) x54))) (exists ((x55 Int)) (and (= x48 (lift_to_int$ lift_l)) (g k x55)))))) (and (= x48 k) (g (lift_to_int$ (lift_to_int$ lift_l)) x50) (not (exists ((x56 Int)) (and (= x48 (lift_to_int$ lift_l)) (g k x56))))) (and (= x48 (lift_to_int$ lift_l)) (g k x50)))) (= x49 x50))))
(assert (exists ((b0 Int)) (forall ((x57 Int)) (=> (exists ((x58 Int)) (and (<= (+ k 1) x58) (<= x58 (+ k 1)) (or (and (g x58 x57) (not (or (exists ((x59 Int)) (and (= x58 k) (g (lift_to_int$ (lift_to_int$ lift_l)) x59))) (exists ((x60 Int)) (and (= x58 (lift_to_int$ lift_l)) (g k x60)))))) (and (= x58 k) (g (lift_to_int$ (lift_to_int$ lift_l)) x57) (not (exists ((x61 Int)) (and (= x58 (lift_to_int$ lift_l)) (g k x61))))) (and (= x58 (lift_to_int$ lift_l)) (g k x57))))) (<= b0 x57)))))
(assert (forall ((a Int) (b1 Int)) (=> (and (<= 1 a) (<= a n) (<= 1 b1) (<= b1 n) (not (= a b1))) (forall ((x62 Int) (x63 Int)) (= (or (and (g x62 x63) (not (or (exists ((x64 Int)) (and (= x62 a) (g b1 x64))) (exists ((x65 Int)) (and (= x62 b1) (g a x65)))))) (and (= x62 a) (g b1 x63) (not (exists ((x66 Int)) (and (= x62 b1) (g a x66))))) (and (= x62 b1) (g a x63))) (or (and (g x62 x63) (not (or (= x62 a) (= x62 b1)))) (and (= x62 a) (g b1 x63)) (and (= x62 b1) (g a x63))))))))
(assert (forall ((a0 Int) (b2 Int)) (=> (and (<= 1 a0) (<= a0 n) (<= 1 b2) (<= b2 n) (not (= a0 b2))) (and (forall ((x67 Int) (lift_x68 Int)) (=> (>= lift_x68 0) (=> (or (and (= x67 a0) (g b2 (lift_to_int$ lift_x68))) (and (= x67 b2) (g a0 (lift_to_int$ lift_x68)))) (and (<= 1 x67) (<= x67 n) (<= 0 (lift_to_int$ lift_x68)))))) (forall ((x69 Int) (x70 Int) (x71 Int)) (=> (and (or (and (= x69 a0) (g b2 x70)) (and (= x69 b2) (g a0 x70))) (or (and (= x69 a0) (g b2 x71)) (and (= x69 b2) (g a0 x71)))) (= x70 x71))) (forall ((x72 Int) (x73 Int) (x74 Int)) (=> (and (or (and (= x73 a0) (g b2 x72)) (and (= x73 b2) (g a0 x72))) (or (and (= x74 a0) (g b2 x72)) (and (= x74 b2) (g a0 x72)))) (= x73 x74)))))))
(assert (forall ((a1 Int) (b3 Int)) (=> (and (<= 1 a1) (<= a1 n) (<= 1 b3) (<= b3 n) (not (= a1 b3))) (and (forall ((x75 Int) (lift_x76 Int)) (=> (>= lift_x76 0) (=> (and (g x75 (lift_to_int$ lift_x76)) (not (or (= x75 a1) (= x75 b3)))) (and (<= 1 x75) (<= x75 n) (<= 0 (lift_to_int$ lift_x76)))))) (forall ((x77 Int) (x78 Int) (x79 Int)) (=> (and (g x77 x78) (not (or (= x77 a1) (= x77 b3))) (g x77 x79)) (= x78 x79))) (forall ((x80 Int) (x81 Int) (x82 Int)) (=> (and (g x81 x80) (not (or (= x81 a1) (= x81 b3))) (g x82 x80) (not (or (= x82 a1) (= x82 b3)))) (= x81 x82)))))))
(assert (forall ((a2 Int) (b4 Int)) (=> (and (<= 1 a2) (<= a2 n) (<= 1 b4) (<= b4 n) (not (= a2 b4))) (forall ((x83 Int)) (= (or (exists ((x84 Int)) (and (g x83 x84) (not (or (= x83 a2) (= x83 b4))))) (exists ((x85 Int)) (and (= x83 a2) (g b4 x85))) (exists ((x86 Int)) (and (= x83 b4) (g a2 x86)))) (and (<= 1 x83) (<= x83 n)))))))
(assert (forall ((a3 Int) (b5 Int)) (=> (and (<= 1 a3) (<= a3 n) (<= 1 b5) (<= b5 n) (not (= a3 b5))) (forall ((x87 Int)) (not (and (exists ((x88 Int)) (and (g x88 x87) (not (or (= x88 a3) (= x88 b5))))) (or (g b5 x87) (g a3 x87))))))))
(assert (not (forall ((x89 Int)) (not (and (exists ((x90 Int)) (g x89 x90)) (<= k x89) (<= x89 j))))))
(assert (not (forall ((x91 Int)) (not (and (or (exists ((x92 Int)) (and (g x91 x92) (not (or (exists ((x93 Int)) (and (= x91 k) (g (lift_to_int$ (lift_to_int$ lift_l)) x93))) (exists ((x94 Int)) (and (= x91 (lift_to_int$ lift_l)) (g k x94))))))) (exists ((x95 Int)) (and (= x91 k) (g (lift_to_int$ (lift_to_int$ lift_l)) x95) (not (exists ((x96 Int)) (and (= x91 (lift_to_int$ lift_l)) (g k x96)))))) (exists ((x97 Int)) (and (= x91 (lift_to_int$ lift_l)) (g k x97)))) (<= (+ k 1) x91) (<= x91 (+ k 1)))))))
(assert (not (and (or (and (exists ((x98 Int) (x99 Int)) (and (= x98 (+ k 1)) (exists ((x100 Int)) (and (<= (+ k 1) x100) (<= x100 (+ k 1)) (or (and (g x100 x99) (not (or (exists ((x101 Int)) (and (= x100 k) (g (lift_to_int$ (lift_to_int$ lift_l)) x101))) (exists ((x102 Int)) (and (= x100 (lift_to_int$ lift_l)) (g k x102)))))) (and (= x100 k) (g (lift_to_int$ (lift_to_int$ lift_l)) x99) (not (exists ((x103 Int)) (and (= x100 (lift_to_int$ lift_l)) (g k x103))))) (and (= x100 (lift_to_int$ lift_l)) (g k x99))))) (forall ((x104 Int)) (=> (exists ((x105 Int)) (and (<= (+ k 1) x105) (<= x105 (+ k 1)) (or (and (g x105 x104) (not (or (exists ((x106 Int)) (and (= x105 k) (g (lift_to_int$ (lift_to_int$ lift_l)) x106))) (exists ((x107 Int)) (and (= x105 (lift_to_int$ lift_l)) (g k x107)))))) (and (= x105 k) (g (lift_to_int$ (lift_to_int$ lift_l)) x104) (not (exists ((x108 Int)) (and (= x105 (lift_to_int$ lift_l)) (g k x108))))) (and (= x105 (lift_to_int$ lift_l)) (g k x104))))) (<= x99 x104))) (g x98 x99))) (not (exists ((x109 Int)) (and (= (+ k 1) k) (g (lift_to_int$ (lift_to_int$ lift_l)) x109))))) (and (= (+ k 1) k) (exists ((x110 Int)) (and (exists ((x111 Int)) (and (<= (+ k 1) x111) (<= x111 (+ k 1)) (or (and (g x111 x110) (not (or (exists ((x112 Int)) (and (= x111 k) (g (lift_to_int$ (lift_to_int$ lift_l)) x112))) (exists ((x113 Int)) (and (= x111 (lift_to_int$ lift_l)) (g k x113)))))) (and (= x111 k) (g (lift_to_int$ (lift_to_int$ lift_l)) x110) (not (exists ((x114 Int)) (and (= x111 (lift_to_int$ lift_l)) (g k x114))))) (and (= x111 (lift_to_int$ lift_l)) (g k x110))))) (forall ((x115 Int)) (=> (exists ((x116 Int)) (and (<= (+ k 1) x116) (<= x116 (+ k 1)) (or (and (g x116 x115) (not (or (exists ((x117 Int)) (and (= x116 k) (g (lift_to_int$ (lift_to_int$ lift_l)) x117))) (exists ((x118 Int)) (and (= x116 (lift_to_int$ lift_l)) (g k x118)))))) (and (= x116 k) (g (lift_to_int$ (lift_to_int$ lift_l)) x115) (not (exists ((x119 Int)) (and (= x116 (lift_to_int$ lift_l)) (g k x119))))) (and (= x116 (lift_to_int$ lift_l)) (g k x115))))) (<= x110 x115))) (g (lift_to_int$ (lift_to_int$ lift_l)) x110))))) (not (= (+ k 1) (lift_to_int$ lift_l))))))
(assert (and (>= (lift_nat_step$ lift_l) 0) (= (lift_to_int$ (lift_nat_step$ lift_l)) (lift_to_int$ lift_l))))
(assert true)
(assert (>= lift_l 0))
(check-sat)
